problem_generation/data/GISP/train/er_n=69_m=1355_p=0.60_SET2_setparam=100.00_alpha=0.50_978.lp
maximize
OBJ:100x0 + 100x1 + 100x2 + 100x3 + 100x4 + 100x5 + 100x6 + 100x7 + 100x8 + 100x9 + 100x10 + 100x11 + 100x12 + 100x13 + 100x14 + 100x15 + 100x16 + 100x17 + 100x18 + 100x19 + 100x20 + 100x21 + 100x22 + 100x23 + 100x24 + 100x25 + 100x26 + 100x27 + 100x28 + 100x29 + 100x30 + 100x31 + 100x32 + 100x33 + 100x34 + 100x35 + 100x36 + 100x37 + 100x38 + 100x39 + 100x40 + 100x41 + 100x42 + 100x43 + 100x44 + 100x45 + 100x46 + 100x47 + 100x48 + 100x49 + 100x50 + 100x51 + 100x52 + 100x53 + 100x54 + 100x55 + 100x56 + 100x57 + 100x58 + 100x59 + 100x60 + 100x61 + 100x62 + 100x63 + 100x64 + 100x65 + 100x66 + 100x67 + 100x68 - y59_64 - y15_39 - y17_58 - y26_39 - y7_35 - y17_67 - y8_9 - y40_50 - y21_46 - y0_23 - y6_66 - y21_64 - y41_51 - y44_47 - y2_41 - y3_6 - y10_54 - y14_15 - y13_65 - y24_65 - y15_16 - y36_48 - y7_21 - y47_66 - y5_60 - y9_58 - y6_34 - y29_36 - y9_67 - y21_32 - y48_49 - y40_45 - y21_41 - y21_59 - y10_22 - y21_68 - y2_27 - y25_29 - y10_40 - y54_65 - y2_36 - y44_51 - y25_47 - y3_28 - y13_60 - y24_60 - y14_37 - y36_43 - y7_16 - y47_52 - y5_46 - y28_48 - y59_63 - y17_57 - y9_53 - y28_66 - y6_38 - y6_47 - y29_49 - y21_45 - y6_56 - y10_17 - y6_65 - y10_26 - y62_64 - y2_40 - y3_14 - y43_50 - y24_46 - y14_23 - y43_59 - y24_55 - y35_55 - y43_68 - y24_64 - y17_34 - y9_30 - y47_56 - y47_65 - y9_48 - y5_59 - y21_31 - y50_67 - y29_44 - y42_63 - y21_49 - y39_57 - y2_17 - y10_39 - y23_58 - y32_45 - y43_45 - y13_41 - y1_48 - y1_57 - y35_59 - y1_66 - y17_38 - y9_34 - y28_47 - y9_43 - y6_19 - y39_52 - y31_48 - y39_61 - y2_21 - y20_57 - y31_57 - y12_53 - y2_30 - y54_68 - y12_62 - y13_27 - y51_53 - y1_34 - y1_43 - y24_45 - y43_58 - y16_41 - y13_54 - y13_63 - y16_59 - y5_22 - y36_37 - y9_20 - y17_33 - y9_29 - y38_65 - y17_42 - y49_65 - y9_38 - y5_49 - y9_47 - y6_32 - y8_51 - y61_66 - y8_60 - y30_60 - y2_7 - y39_56 - y12_39 - y20_52 - y12_48 - y54_63 - y23_57 - y13_22 - y16_18 - y12_66 - y24_31 - y4_62 - y43_44 - y1_47 - y13_49 - y24_49 - y35_49 - y9_15 - y17_28 - y17_37 - y9_33 - y58_65 - y30_46 - y42_48 - y27_59 - y8_55 - y19_55 - y27_68 - y0_51 - y30_55 - y42_57 - y11_60 - y12_25 - y20_38 - y12_34 - y31_47 - y39_60 - y20_56 - y4_39 - y31_56 - y12_52 - y1_15 - y32_39 - y16_22 - y24_44 - y35_44 - y37_63 - y5_12 - y9_10 - y38_46 - y17_23 - y15_53 - y5_30 - y15_62 - y26_62 - y5_39 - y49_64 - y7_67 - y42_52 - y19_59 - y42_61 - y0_55 - y19_68 - y20_33 - y30_68 - y31_42 - y12_38 - y1_10 - y23_56 - y13_21 - y4_61 - y16_26 - y56_62 - y65_67 - y26_48 - y38_50 - y46_63 - y49_50 - y57_63 - y49_68 - y27_40 - y8_36 - y27_49 - y8_45 - y19_45 - y42_47 - y8_54 - y30_54 - y19_63 - y0_59 - y23_24 - y52_60 - y0_68 - y12_33 - y23_42 - y4_38 - y4_47 - y1_23 - y37_44 - y1_32 - y45_66 - y46_49 - y18_39 - y38_54 - y49_54 - y18_48 - y26_61 - y38_63 - y27_35 - y11_18 - y8_31 - y30_31 - y27_44 - y11_36 - y19_49 - y0_45 - y30_58 - y12_19 - y60_68 - y12_28 - y23_28 - y41_64 - y25_56 - y1_18 - y53_56 - y22_50 - y34_52 - y53_65 - y3_46 - y37_48 - y3_55 - y14_64 - y15_38 - y15_47 - y38_49 - y7_43 - y15_56 - y7_61 - y8_26 - y18_61 - y19_26 - y29_58 - y8_35 - y19_35 - y30_35 - y40_67 - y11_40 - y33_46 - y41_59 - y4_19 - y41_68 - y4_28 - y2_67 - y22_45 - y14_41 - y45_56 - y3_50 - y14_50 - y14_59 - y15_24 - y18_20 - y26_33 - y59_67 - y18_38 - y7_47 - y8_12 - y8_30 - y25_37 - y4_14 - y33_50 - y2_53 - y25_55 - y3_27 - y37_38 - y22_49 - y34_51 - y14_54 - y15_19 - y7_15 - y7_24 - y18_24 - y15_37 - y47_60 - y0_3 - y29_39 - y48_52 - y29_57 - y40_57 - y29_66 - y21_62 - y10_61 - y22_26 - y33_63 - y25_59 - y43_67 - y3_40 - y7_10 - y7_19 - y36_55 - y55_68 - y59_66 - y29_34 - y9_65 - y29_43 - y0_16 - y29_52 - y40_52 - y48_65 - y6_59 - y29_61 - y10_47 - y33_49 - y2_52 - y25_54 - y22_30 - y2_61 - y14_26 - y32_62 - y22_39 - y3_35 - y35_67 - y15_18 - y47_50 - y55_63 - y28_46 - y7_23 - y18_23 - y59_61 - y0_2 - y29_38 - y29_47 - y6_63 - y10_24 - y25_31 - y54_67 - y33_44 - y2_47 - y24_53 - y35_53 - y3_30 - y32_66 - y43_66 - y7_9 - y36_45 - y9_37 - y55_67 - y28_50 - y28_59 - y17_68 - y6_31 - y28_68 - y9_64 - y29_42 - y6_49 - y6_58 - y2_6 - y2_33 - y2_42 - y51_56 - y32_52 - y24_48 - y35_48 - y16_44 - y35_57 - y16_53 - y24_66 - y17_36 - y36_49 - y36_58 - y17_54 - y58_64 - y9_59 - y6_35 - y27_67 - y2_10 - y20_46 - y10_23 - y39_59 - y39_68 - y20_64 - y31_64 - y4_65 - y43_47 - y13_43 - y16_39 - y1_59 - y17_22 - y5_29 - y28_31 - y57_67 - y9_27 - y9_36 - y5_47 - y58_59 - y9_54 - y50_55 - y6_30 - y42_51 - y27_62 - y19_58 - y42_60 - y11_63 - y2_5 - y20_50 - y31_50 - y62_65 - y12_46 - y23_46 - y32_33 - y1_27 - y24_29 - y4_60 - y32_42 - y1_36 - y16_43 - y1_63 - y36_39 - y6_7 - y42_46 - y50_59 - y8_53 - y19_62 - y30_62 - y11_58 - y20_36 - y10_13 - y31_45 - y39_58 - y2_18 - y31_54 - y4_46 - y16_29 - y1_40 - y24_42 - y35_51 - y5_10 - y57_66 - y18_65 - y8_39 - y30_39 - y30_48 - y42_50 - y50_63 - y8_57 - y11_62 - y23_27 - y39_44 - y12_36 - y23_36 - y23_45 - y1_8 - y4_41 - y1_17 - y4_59 - y34_60 - y45_60 - y35_37 - y37_65 - y57_61 - y15_55 - y7_51 - y15_64 - y27_29 - y18_60 - y8_25 - y27_47 - y19_52 - y30_52 - y27_65 - y12_13 - y30_61 - y60_62 - y11_66 - y52_67 - y4_27 - y23_40 - y23_49 - y1_12 - y13_14 - y34_46 - y45_46 - y53_59 - y4_54 - y45_55 - y1_30 - y1_39 - y5_9 - y18_46 - y15_59 - y49_61 - y7_64 - y18_64 - y27_42 - y0_25 - y8_38 - y19_47 - y42_49 - y19_56 - y0_52 - y12_17 - y0_61 - y23_26 - y23_44 - y34_41 - y13_18 - y45_50 - y37_46 - y16_23 - y22_57 - y45_59 - y3_53 - y14_53 - y22_66 - y37_55 - y56_68 - y37_64 - y7_41 - y7_59 - y27_37 - y11_20 - y7_68 - y18_68 - y0_29 - y11_29 - y8_42 - y30_42 - y40_65 - y0_47 - y11_47 - y4_8 - y41_57 - y12_30 - y37_41 - y22_52 - y34_54 - y45_54 - y14_48 - y37_50 - y22_61 - y56_63 - y14_57 - y14_66 - y15_31 - y18_27 - y59_65 - y18_36 - y15_49 - y8_19 - y18_63 - y19_37 - y30_37 - y11_33 - y0_42 - y41_43 - y10_46 - y41_61 - y25_44 - y33_57 - y10_64 - y1_6 - y22_47 - y14_43 - y37_45 - y22_56 - y3_52 - y37_54 - y7_13 - y3_61 - y18_22 - y15_35 - y26_35 - y36_67 - y26_44 - y8_14 - y0_10 - y29_46 - y0_28 - y6_62 - y29_64 - y21_60 - y4_7 - y10_41 - y52_56 - y10_50 - y2_55 - y3_29 - y14_29 - y22_51 - y37_49
 Subject to
C1: x0+x2-y0_2 <=1 
C2: x0+x3-y0_3 <=1 
C3: x0+x5 <=1 
C4: x0+x6 <=1 
C5: x0+x10-y0_10 <=1 
C6: x0+x11 <=1 
C7: x0+x13 <=1 
C8: x0+x15 <=1 
C9: x0+x16-y0_16 <=1 
C10: x0+x23-y0_23 <=1 
C11: x0+x24 <=1 
C12: x0+x25-y0_25 <=1 
C13: x0+x26 <=1 
C14: x0+x28-y0_28 <=1 
C15: x0+x29-y0_29 <=1 
C16: x0+x31 <=1 
C17: x0+x33 <=1 
C18: x0+x34 <=1 
C19: x0+x35 <=1 
C20: x0+x36 <=1 
C21: x0+x41 <=1 
C22: x0+x42-y0_42 <=1 
C23: x0+x45-y0_45 <=1 
C24: x0+x46 <=1 
C25: x0+x47-y0_47 <=1 
C26: x0+x48 <=1 
C27: x0+x51-y0_51 <=1 
C28: x0+x52-y0_52 <=1 
C29: x0+x53 <=1 
C30: x0+x55-y0_55 <=1 
C31: x0+x57 <=1 
C32: x0+x58 <=1 
C33: x0+x59-y0_59 <=1 
C34: x0+x60 <=1 
C35: x0+x61-y0_61 <=1 
C36: x0+x62 <=1 
C37: x0+x63 <=1 
C38: x0+x64 <=1 
C39: x0+x66 <=1 
C40: x0+x68-y0_68 <=1 
C41: x1+x2 <=1 
C42: x1+x3 <=1 
C43: x1+x4 <=1 
C44: x1+x6-y1_6 <=1 
C45: x1+x8-y1_8 <=1 
C46: x1+x10-y1_10 <=1 
C47: x1+x12-y1_12 <=1 
C48: x1+x13 <=1 
C49: x1+x14 <=1 
C50: x1+x15-y1_15 <=1 
C51: x1+x17-y1_17 <=1 
C52: x1+x18-y1_18 <=1 
C53: x1+x20 <=1 
C54: x1+x23-y1_23 <=1 
C55: x1+x25 <=1 
C56: x1+x27-y1_27 <=1 
C57: x1+x30-y1_30 <=1 
C58: x1+x32-y1_32 <=1 
C59: x1+x33 <=1 
C60: x1+x34-y1_34 <=1 
C61: x1+x36-y1_36 <=1 
C62: x1+x39-y1_39 <=1 
C63: x1+x40-y1_40 <=1 
C64: x1+x41 <=1 
C65: x1+x43-y1_43 <=1 
C66: x1+x46 <=1 
C67: x1+x47-y1_47 <=1 
C68: x1+x48-y1_48 <=1 
C69: x1+x51 <=1 
C70: x1+x57-y1_57 <=1 
C71: x1+x58 <=1 
C72: x1+x59-y1_59 <=1 
C73: x1+x60 <=1 
C74: x1+x63-y1_63 <=1 
C75: x1+x65 <=1 
C76: x1+x66-y1_66 <=1 
C77: x2+x4 <=1 
C78: x2+x5-y2_5 <=1 
C79: x2+x6-y2_6 <=1 
C80: x2+x7-y2_7 <=1 
C81: x2+x10-y2_10 <=1 
C82: x2+x15 <=1 
C83: x2+x17-y2_17 <=1 
C84: x2+x18-y2_18 <=1 
C85: x2+x20 <=1 
C86: x2+x21-y2_21 <=1 
C87: x2+x23 <=1 
C88: x2+x24 <=1 
C89: x2+x27-y2_27 <=1 
C90: x2+x29 <=1 
C91: x2+x30-y2_30 <=1 
C92: x2+x32 <=1 
C93: x2+x33-y2_33 <=1 
C94: x2+x34 <=1 
C95: x2+x35 <=1 
C96: x2+x36-y2_36 <=1 
C97: x2+x37 <=1 
C98: x2+x40-y2_40 <=1 
C99: x2+x41-y2_41 <=1 
C100: x2+x42-y2_42 <=1 
C101: x2+x46 <=1 
C102: x2+x47-y2_47 <=1 
C103: x2+x50 <=1 
C104: x2+x51 <=1 
C105: x2+x52-y2_52 <=1 
C106: x2+x53-y2_53 <=1 
C107: x2+x55-y2_55 <=1 
C108: x2+x56 <=1 
C109: x2+x61-y2_61 <=1 
C110: x2+x62 <=1 
C111: x2+x64 <=1 
C112: x2+x65 <=1 
C113: x2+x67-y2_67 <=1 
C114: x3+x6-y3_6 <=1 
C115: x3+x7 <=1 
C116: x3+x10 <=1 
C117: x3+x14-y3_14 <=1 
C118: x3+x18 <=1 
C119: x3+x19 <=1 
C120: x3+x20 <=1 
C121: x3+x25 <=1 
C122: x3+x26 <=1 
C123: x3+x27-y3_27 <=1 
C124: x3+x28-y3_28 <=1 
C125: x3+x29-y3_29 <=1 
C126: x3+x30-y3_30 <=1 
C127: x3+x31 <=1 
C128: x3+x32 <=1 
C129: x3+x35-y3_35 <=1 
C130: x3+x38 <=1 
C131: x3+x40-y3_40 <=1 
C132: x3+x46-y3_46 <=1 
C133: x3+x47 <=1 
C134: x3+x48 <=1 
C135: x3+x49 <=1 
C136: x3+x50-y3_50 <=1 
C137: x3+x52-y3_52 <=1 
C138: x3+x53-y3_53 <=1 
C139: x3+x55-y3_55 <=1 
C140: x3+x57 <=1 
C141: x3+x58 <=1 
C142: x3+x61-y3_61 <=1 
C143: x3+x62 <=1 
C144: x3+x63 <=1 
C145: x3+x64 <=1 
C146: x3+x67 <=1 
C147: x3+x68 <=1 
C148: x4+x6 <=1 
C149: x4+x7-y4_7 <=1 
C150: x4+x8-y4_8 <=1 
C151: x4+x9 <=1 
C152: x4+x10 <=1 
C153: x4+x12 <=1 
C154: x4+x13 <=1 
C155: x4+x14-y4_14 <=1 
C156: x4+x16 <=1 
C157: x4+x17 <=1 
C158: x4+x18 <=1 
C159: x4+x19-y4_19 <=1 
C160: x4+x24 <=1 
C161: x4+x27-y4_27 <=1 
C162: x4+x28-y4_28 <=1 
C163: x4+x30 <=1 
C164: x4+x33 <=1 
C165: x4+x34 <=1 
C166: x4+x38-y4_38 <=1 
C167: x4+x39-y4_39 <=1 
C168: x4+x40 <=1 
C169: x4+x41-y4_41 <=1 
C170: x4+x42 <=1 
C171: x4+x43 <=1 
C172: x4+x44 <=1 
C173: x4+x46-y4_46 <=1 
C174: x4+x47-y4_47 <=1 
C175: x4+x48 <=1 
C176: x4+x50 <=1 
C177: x4+x51 <=1 
C178: x4+x53 <=1 
C179: x4+x54-y4_54 <=1 
C180: x4+x56 <=1 
C181: x4+x57 <=1 
C182: x4+x59-y4_59 <=1 
C183: x4+x60-y4_60 <=1 
C184: x4+x61-y4_61 <=1 
C185: x4+x62-y4_62 <=1 
C186: x4+x63 <=1 
C187: x4+x64 <=1 
C188: x4+x65-y4_65 <=1 
C189: x4+x66 <=1 
C190: x5+x6 <=1 
C191: x5+x7 <=1 
C192: x5+x8 <=1 
C193: x5+x9-y5_9 <=1 
C194: x5+x10-y5_10 <=1 
C195: x5+x11 <=1 
C196: x5+x12-y5_12 <=1 
C197: x5+x16 <=1 
C198: x5+x19 <=1 
C199: x5+x22-y5_22 <=1 
C200: x5+x26 <=1 
C201: x5+x27 <=1 
C202: x5+x28 <=1 
C203: x5+x29-y5_29 <=1 
C204: x5+x30-y5_30 <=1 
C205: x5+x31 <=1 
C206: x5+x32 <=1 
C207: x5+x33 <=1 
C208: x5+x34 <=1 
C209: x5+x36 <=1 
C210: x5+x38 <=1 
C211: x5+x39-y5_39 <=1 
C212: x5+x41 <=1 
C213: x5+x42 <=1 
C214: x5+x43 <=1 
C215: x5+x46-y5_46 <=1 
C216: x5+x47-y5_47 <=1 
C217: x5+x49-y5_49 <=1 
C218: x5+x50 <=1 
C219: x5+x51 <=1 
C220: x5+x52 <=1 
C221: x5+x54 <=1 
C222: x5+x56 <=1 
C223: x5+x59-y5_59 <=1 
C224: x5+x60-y5_60 <=1 
C225: x5+x61 <=1 
C226: x5+x62 <=1 
C227: x5+x63 <=1 
C228: x5+x65 <=1 
C229: x6+x7-y6_7 <=1 
C230: x6+x8 <=1 
C231: x6+x9 <=1 
C232: x6+x12 <=1 
C233: x6+x13 <=1 
C234: x6+x16 <=1 
C235: x6+x17 <=1 
C236: x6+x18 <=1 
C237: x6+x19-y6_19 <=1 
C238: x6+x20 <=1 
C239: x6+x21 <=1 
C240: x6+x22 <=1 
C241: x6+x23 <=1 
C242: x6+x25 <=1 
C243: x6+x30-y6_30 <=1 
C244: x6+x31-y6_31 <=1 
C245: x6+x32-y6_32 <=1 
C246: x6+x34-y6_34 <=1 
C247: x6+x35-y6_35 <=1 
C248: x6+x36 <=1 
C249: x6+x38-y6_38 <=1 
C250: x6+x40 <=1 
C251: x6+x41 <=1 
C252: x6+x44 <=1 
C253: x6+x46 <=1 
C254: x6+x47-y6_47 <=1 
C255: x6+x49-y6_49 <=1 
C256: x6+x50 <=1 
C257: x6+x53 <=1 
C258: x6+x54 <=1 
C259: x6+x56-y6_56 <=1 
C260: x6+x58-y6_58 <=1 
C261: x6+x59-y6_59 <=1 
C262: x6+x60 <=1 
C263: x6+x61 <=1 
C264: x6+x62-y6_62 <=1 
C265: x6+x63-y6_63 <=1 
C266: x6+x64 <=1 
C267: x6+x65-y6_65 <=1 
C268: x6+x66-y6_66 <=1 
C269: x7+x8 <=1 
C270: x7+x9-y7_9 <=1 
C271: x7+x10-y7_10 <=1 
C272: x7+x12 <=1 
C273: x7+x13-y7_13 <=1 
C274: x7+x15-y7_15 <=1 
C275: x7+x16-y7_16 <=1 
C276: x7+x17 <=1 
C277: x7+x19-y7_19 <=1 
C278: x7+x21-y7_21 <=1 
C279: x7+x23-y7_23 <=1 
C280: x7+x24-y7_24 <=1 
C281: x7+x27 <=1 
C282: x7+x29 <=1 
C283: x7+x32 <=1 
C284: x7+x33 <=1 
C285: x7+x35-y7_35 <=1 
C286: x7+x36 <=1 
C287: x7+x37 <=1 
C288: x7+x41-y7_41 <=1 
C289: x7+x43-y7_43 <=1 
C290: x7+x44 <=1 
C291: x7+x47-y7_47 <=1 
C292: x7+x49 <=1 
C293: x7+x50 <=1 
C294: x7+x51-y7_51 <=1 
C295: x7+x53 <=1 
C296: x7+x55 <=1 
C297: x7+x56 <=1 
C298: x7+x58 <=1 
C299: x7+x59-y7_59 <=1 
C300: x7+x61-y7_61 <=1 
C301: x7+x64-y7_64 <=1 
C302: x7+x66 <=1 
C303: x7+x67-y7_67 <=1 
C304: x7+x68-y7_68 <=1 
C305: x8+x9-y8_9 <=1 
C306: x8+x10 <=1 
C307: x8+x12-y8_12 <=1 
C308: x8+x13 <=1 
C309: x8+x14-y8_14 <=1 
C310: x8+x17 <=1 
C311: x8+x19-y8_19 <=1 
C312: x8+x21 <=1 
C313: x8+x22 <=1 
C314: x8+x25-y8_25 <=1 
C315: x8+x26-y8_26 <=1 
C316: x8+x29 <=1 
C317: x8+x30-y8_30 <=1 
C318: x8+x31-y8_31 <=1 
C319: x8+x33 <=1 
C320: x8+x35-y8_35 <=1 
C321: x8+x36-y8_36 <=1 
C322: x8+x38-y8_38 <=1 
C323: x8+x39-y8_39 <=1 
C324: x8+x42-y8_42 <=1 
C325: x8+x45-y8_45 <=1 
C326: x8+x46 <=1 
C327: x8+x47 <=1 
C328: x8+x48 <=1 
C329: x8+x50 <=1 
C330: x8+x51-y8_51 <=1 
C331: x8+x53-y8_53 <=1 
C332: x8+x54-y8_54 <=1 
C333: x8+x55-y8_55 <=1 
C334: x8+x57-y8_57 <=1 
C335: x8+x60-y8_60 <=1 
C336: x8+x61 <=1 
C337: x8+x64 <=1 
C338: x8+x66 <=1 
C339: x8+x67 <=1 
C340: x9+x10-y9_10 <=1 
C341: x9+x11 <=1 
C342: x9+x14 <=1 
C343: x9+x15-y9_15 <=1 
C344: x9+x16 <=1 
C345: x9+x17 <=1 
C346: x9+x20-y9_20 <=1 
C347: x9+x22 <=1 
C348: x9+x23 <=1 
C349: x9+x26 <=1 
C350: x9+x27-y9_27 <=1 
C351: x9+x28 <=1 
C352: x9+x29-y9_29 <=1 
C353: x9+x30-y9_30 <=1 
C354: x9+x33-y9_33 <=1 
C355: x9+x34-y9_34 <=1 
C356: x9+x36-y9_36 <=1 
C357: x9+x37-y9_37 <=1 
C358: x9+x38-y9_38 <=1 
C359: x9+x41 <=1 
C360: x9+x43-y9_43 <=1 
C361: x9+x46 <=1 
C362: x9+x47-y9_47 <=1 
C363: x9+x48-y9_48 <=1 
C364: x9+x49 <=1 
C365: x9+x53-y9_53 <=1 
C366: x9+x54-y9_54 <=1 
C367: x9+x55 <=1 
C368: x9+x56 <=1 
C369: x9+x57 <=1 
C370: x9+x58-y9_58 <=1 
C371: x9+x59-y9_59 <=1 
C372: x9+x61 <=1 
C373: x9+x64-y9_64 <=1 
C374: x9+x65-y9_65 <=1 
C375: x9+x66 <=1 
C376: x9+x67-y9_67 <=1 
C377: x9+x68 <=1 
C378: x10+x13-y10_13 <=1 
C379: x10+x15 <=1 
C380: x10+x17-y10_17 <=1 
C381: x10+x19 <=1 
C382: x10+x20 <=1 
C383: x10+x22-y10_22 <=1 
C384: x10+x23-y10_23 <=1 
C385: x10+x24-y10_24 <=1 
C386: x10+x26-y10_26 <=1 
C387: x10+x28 <=1 
C388: x10+x29 <=1 
C389: x10+x32 <=1 
C390: x10+x33 <=1 
C391: x10+x35 <=1 
C392: x10+x38 <=1 
C393: x10+x39-y10_39 <=1 
C394: x10+x40-y10_40 <=1 
C395: x10+x41-y10_41 <=1 
C396: x10+x43 <=1 
C397: x10+x44 <=1 
C398: x10+x46-y10_46 <=1 
C399: x10+x47-y10_47 <=1 
C400: x10+x48 <=1 
C401: x10+x49 <=1 
C402: x10+x50-y10_50 <=1 
C403: x10+x52 <=1 
C404: x10+x54-y10_54 <=1 
C405: x10+x57 <=1 
C406: x10+x58 <=1 
C407: x10+x61-y10_61 <=1 
C408: x10+x64-y10_64 <=1 
C409: x10+x65 <=1 
C410: x10+x67 <=1 
C411: x10+x68 <=1 
C412: x11+x12 <=1 
C413: x11+x13 <=1 
C414: x11+x15 <=1 
C415: x11+x16 <=1 
C416: x11+x18-y11_18 <=1 
C417: x11+x20-y11_20 <=1 
C418: x11+x29-y11_29 <=1 
C419: x11+x30 <=1 
C420: x11+x33-y11_33 <=1 
C421: x11+x36-y11_36 <=1 
C422: x11+x38 <=1 
C423: x11+x39 <=1 
C424: x11+x40-y11_40 <=1 
C425: x11+x46 <=1 
C426: x11+x47-y11_47 <=1 
C427: x11+x48 <=1 
C428: x11+x49 <=1 
C429: x11+x51 <=1 
C430: x11+x53 <=1 
C431: x11+x55 <=1 
C432: x11+x58-y11_58 <=1 
C433: x11+x60-y11_60 <=1 
C434: x11+x61 <=1 
C435: x11+x62-y11_62 <=1 
C436: x11+x63-y11_63 <=1 
C437: x11+x64 <=1 
C438: x11+x65 <=1 
C439: x11+x66-y11_66 <=1 
C440: x11+x67 <=1 
C441: x11+x68 <=1 
C442: x12+x13-y12_13 <=1 
C443: x12+x14 <=1 
C444: x12+x16 <=1 
C445: x12+x17-y12_17 <=1 
C446: x12+x19-y12_19 <=1 
C447: x12+x20 <=1 
C448: x12+x21 <=1 
C449: x12+x23 <=1 
C450: x12+x25-y12_25 <=1 
C451: x12+x28-y12_28 <=1 
C452: x12+x30-y12_30 <=1 
C453: x12+x31 <=1 
C454: x12+x32 <=1 
C455: x12+x33-y12_33 <=1 
C456: x12+x34-y12_34 <=1 
C457: x12+x36-y12_36 <=1 
C458: x12+x37 <=1 
C459: x12+x38-y12_38 <=1 
C460: x12+x39-y12_39 <=1 
C461: x12+x40 <=1 
C462: x12+x43 <=1 
C463: x12+x45 <=1 
C464: x12+x46-y12_46 <=1 
C465: x12+x47 <=1 
C466: x12+x48-y12_48 <=1 
C467: x12+x49 <=1 
C468: x12+x50 <=1 
C469: x12+x51 <=1 
C470: x12+x52-y12_52 <=1 
C471: x12+x53-y12_53 <=1 
C472: x12+x54 <=1 
C473: x12+x57 <=1 
C474: x12+x60 <=1 
C475: x12+x61 <=1 
C476: x12+x62-y12_62 <=1 
C477: x12+x63 <=1 
C478: x12+x64 <=1 
C479: x12+x66-y12_66 <=1 
C480: x13+x14-y13_14 <=1 
C481: x13+x16 <=1 
C482: x13+x18-y13_18 <=1 
C483: x13+x21-y13_21 <=1 
C484: x13+x22-y13_22 <=1 
C485: x13+x23 <=1 
C486: x13+x24 <=1 
C487: x13+x25 <=1 
C488: x13+x27-y13_27 <=1 
C489: x13+x29 <=1 
C490: x13+x33 <=1 
C491: x13+x35 <=1 
C492: x13+x36 <=1 
C493: x13+x38 <=1 
C494: x13+x41-y13_41 <=1 
C495: x13+x42 <=1 
C496: x13+x43-y13_43 <=1 
C497: x13+x45 <=1 
C498: x13+x49-y13_49 <=1 
C499: x13+x50 <=1 
C500: x13+x54-y13_54 <=1 
C501: x13+x58 <=1 
C502: x13+x60-y13_60 <=1 
C503: x13+x61 <=1 
C504: x13+x62 <=1 
C505: x13+x63-y13_63 <=1 
C506: x13+x65-y13_65 <=1 
C507: x13+x67 <=1 
C508: x14+x15-y14_15 <=1 
C509: x14+x20 <=1 
C510: x14+x22 <=1 
C511: x14+x23-y14_23 <=1 
C512: x14+x25 <=1 
C513: x14+x26-y14_26 <=1 
C514: x14+x29-y14_29 <=1 
C515: x14+x36 <=1 
C516: x14+x37-y14_37 <=1 
C517: x14+x38 <=1 
C518: x14+x40 <=1 
C519: x14+x41-y14_41 <=1 
C520: x14+x43-y14_43 <=1 
C521: x14+x44 <=1 
C522: x14+x45 <=1 
C523: x14+x47 <=1 
C524: x14+x48-y14_48 <=1 
C525: x14+x49 <=1 
C526: x14+x50-y14_50 <=1 
C527: x14+x52 <=1 
C528: x14+x53-y14_53 <=1 
C529: x14+x54-y14_54 <=1 
C530: x14+x55 <=1 
C531: x14+x56 <=1 
C532: x14+x57-y14_57 <=1 
C533: x14+x59-y14_59 <=1 
C534: x14+x60 <=1 
C535: x14+x61 <=1 
C536: x14+x62 <=1 
C537: x14+x64-y14_64 <=1 
C538: x14+x66-y14_66 <=1 
C539: x14+x68 <=1 
C540: x15+x16-y15_16 <=1 
C541: x15+x17 <=1 
C542: x15+x18-y15_18 <=1 
C543: x15+x19-y15_19 <=1 
C544: x15+x21 <=1 
C545: x15+x22 <=1 
C546: x15+x24-y15_24 <=1 
C547: x15+x25 <=1 
C548: x15+x27 <=1 
C549: x15+x31-y15_31 <=1 
C550: x15+x32 <=1 
C551: x15+x33 <=1 
C552: x15+x35-y15_35 <=1 
C553: x15+x37-y15_37 <=1 
C554: x15+x38-y15_38 <=1 
C555: x15+x39-y15_39 <=1 
C556: x15+x44 <=1 
C557: x15+x47-y15_47 <=1 
C558: x15+x49-y15_49 <=1 
C559: x15+x50 <=1 
C560: x15+x53-y15_53 <=1 
C561: x15+x55-y15_55 <=1 
C562: x15+x56-y15_56 <=1 
C563: x15+x58 <=1 
C564: x15+x59-y15_59 <=1 
C565: x15+x60 <=1 
C566: x15+x61 <=1 
C567: x15+x62-y15_62 <=1 
C568: x15+x64-y15_64 <=1 
C569: x15+x65 <=1 
C570: x15+x67 <=1 
C571: x16+x18-y16_18 <=1 
C572: x16+x20 <=1 
C573: x16+x22-y16_22 <=1 
C574: x16+x23-y16_23 <=1 
C575: x16+x24 <=1 
C576: x16+x26-y16_26 <=1 
C577: x16+x29-y16_29 <=1 
C578: x16+x31 <=1 
C579: x16+x34 <=1 
C580: x16+x39-y16_39 <=1 
C581: x16+x41-y16_41 <=1 
C582: x16+x43-y16_43 <=1 
C583: x16+x44-y16_44 <=1 
C584: x16+x47 <=1 
C585: x16+x49 <=1 
C586: x16+x53-y16_53 <=1 
C587: x16+x56 <=1 
C588: x16+x59-y16_59 <=1 
C589: x16+x62 <=1 
C590: x16+x63 <=1 
C591: x16+x65 <=1 
C592: x16+x68 <=1 
C593: x17+x22-y17_22 <=1 
C594: x17+x23-y17_23 <=1 
C595: x17+x27 <=1 
C596: x17+x28-y17_28 <=1 
C597: x17+x29 <=1 
C598: x17+x32 <=1 
C599: x17+x33-y17_33 <=1 
C600: x17+x34-y17_34 <=1 
C601: x17+x35 <=1 
C602: x17+x36-y17_36 <=1 
C603: x17+x37-y17_37 <=1 
C604: x17+x38-y17_38 <=1 
C605: x17+x39 <=1 
C606: x17+x40 <=1 
C607: x17+x42-y17_42 <=1 
C608: x17+x44 <=1 
C609: x17+x46 <=1 
C610: x17+x49 <=1 
C611: x17+x51 <=1 
C612: x17+x53 <=1 
C613: x17+x54-y17_54 <=1 
C614: x17+x57-y17_57 <=1 
C615: x17+x58-y17_58 <=1 
C616: x17+x63 <=1 
C617: x17+x64 <=1 
C618: x17+x66 <=1 
C619: x17+x67-y17_67 <=1 
C620: x17+x68-y17_68 <=1 
C621: x18+x19 <=1 
C622: x18+x20-y18_20 <=1 
C623: x18+x22-y18_22 <=1 
C624: x18+x23-y18_23 <=1 
C625: x18+x24-y18_24 <=1 
C626: x18+x26 <=1 
C627: x18+x27-y18_27 <=1 
C628: x18+x30 <=1 
C629: x18+x31 <=1 
C630: x18+x32 <=1 
C631: x18+x34 <=1 
C632: x18+x36-y18_36 <=1 
C633: x18+x38-y18_38 <=1 
C634: x18+x39-y18_39 <=1 
C635: x18+x40 <=1 
C636: x18+x42 <=1 
C637: x18+x46-y18_46 <=1 
C638: x18+x47 <=1 
C639: x18+x48-y18_48 <=1 
C640: x18+x51 <=1 
C641: x18+x52 <=1 
C642: x18+x57 <=1 
C643: x18+x60-y18_60 <=1 
C644: x18+x61-y18_61 <=1 
C645: x18+x62 <=1 
C646: x18+x63-y18_63 <=1 
C647: x18+x64-y18_64 <=1 
C648: x18+x65-y18_65 <=1 
C649: x18+x66 <=1 
C650: x18+x68-y18_68 <=1 
C651: x19+x24 <=1 
C652: x19+x26-y19_26 <=1 
C653: x19+x28 <=1 
C654: x19+x29 <=1 
C655: x19+x32 <=1 
C656: x19+x35-y19_35 <=1 
C657: x19+x37-y19_37 <=1 
C658: x19+x39 <=1 
C659: x19+x41 <=1 
C660: x19+x43 <=1 
C661: x19+x44 <=1 
C662: x19+x45-y19_45 <=1 
C663: x19+x47-y19_47 <=1 
C664: x19+x49-y19_49 <=1 
C665: x19+x52-y19_52 <=1 
C666: x19+x54 <=1 
C667: x19+x55-y19_55 <=1 
C668: x19+x56-y19_56 <=1 
C669: x19+x57 <=1 
C670: x19+x58-y19_58 <=1 
C671: x19+x59-y19_59 <=1 
C672: x19+x60 <=1 
C673: x19+x62-y19_62 <=1 
C674: x19+x63-y19_63 <=1 
C675: x19+x64 <=1 
C676: x19+x65 <=1 
C677: x19+x66 <=1 
C678: x19+x68-y19_68 <=1 
C679: x20+x21 <=1 
C680: x20+x22 <=1 
C681: x20+x23 <=1 
C682: x20+x24 <=1 
C683: x20+x27 <=1 
C684: x20+x28 <=1 
C685: x20+x33-y20_33 <=1 
C686: x20+x34 <=1 
C687: x20+x35 <=1 
C688: x20+x36-y20_36 <=1 
C689: x20+x38-y20_38 <=1 
C690: x20+x40 <=1 
C691: x20+x43 <=1 
C692: x20+x46-y20_46 <=1 
C693: x20+x50-y20_50 <=1 
C694: x20+x52-y20_52 <=1 
C695: x20+x55 <=1 
C696: x20+x56-y20_56 <=1 
C697: x20+x57-y20_57 <=1 
C698: x20+x59 <=1 
C699: x20+x60 <=1 
C700: x20+x63 <=1 
C701: x20+x64-y20_64 <=1 
C702: x20+x65 <=1 
C703: x20+x68 <=1 
C704: x21+x24 <=1 
C705: x21+x25 <=1 
C706: x21+x26 <=1 
C707: x21+x27 <=1 
C708: x21+x28 <=1 
C709: x21+x29 <=1 
C710: x21+x31-y21_31 <=1 
C711: x21+x32-y21_32 <=1 
C712: x21+x33 <=1 
C713: x21+x34 <=1 
C714: x21+x36 <=1 
C715: x21+x37 <=1 
C716: x21+x39 <=1 
C717: x21+x41-y21_41 <=1 
C718: x21+x44 <=1 
C719: x21+x45-y21_45 <=1 
C720: x21+x46-y21_46 <=1 
C721: x21+x49-y21_49 <=1 
C722: x21+x50 <=1 
C723: x21+x51 <=1 
C724: x21+x54 <=1 
C725: x21+x55 <=1 
C726: x21+x57 <=1 
C727: x21+x59-y21_59 <=1 
C728: x21+x60-y21_60 <=1 
C729: x21+x62-y21_62 <=1 
C730: x21+x64-y21_64 <=1 
C731: x21+x65 <=1 
C732: x21+x68-y21_68 <=1 
C733: x22+x24 <=1 
C734: x22+x26-y22_26 <=1 
C735: x22+x29 <=1 
C736: x22+x30-y22_30 <=1 
C737: x22+x31 <=1 
C738: x22+x33 <=1 
C739: x22+x36 <=1 
C740: x22+x37 <=1 
C741: x22+x39-y22_39 <=1 
C742: x22+x45-y22_45 <=1 
C743: x22+x47-y22_47 <=1 
C744: x22+x49-y22_49 <=1 
C745: x22+x50-y22_50 <=1 
C746: x22+x51-y22_51 <=1 
C747: x22+x52-y22_52 <=1 
C748: x22+x53 <=1 
C749: x22+x56-y22_56 <=1 
C750: x22+x57-y22_57 <=1 
C751: x22+x61-y22_61 <=1 
C752: x22+x62 <=1 
C753: x22+x66-y22_66 <=1 
C754: x23+x24-y23_24 <=1 
C755: x23+x25 <=1 
C756: x23+x26-y23_26 <=1 
C757: x23+x27-y23_27 <=1 
C758: x23+x28-y23_28 <=1 
C759: x23+x29 <=1 
C760: x23+x33 <=1 
C761: x23+x34 <=1 
C762: x23+x36-y23_36 <=1 
C763: x23+x37 <=1 
C764: x23+x39 <=1 
C765: x23+x40-y23_40 <=1 
C766: x23+x41 <=1 
C767: x23+x42-y23_42 <=1 
C768: x23+x43 <=1 
C769: x23+x44-y23_44 <=1 
C770: x23+x45-y23_45 <=1 
C771: x23+x46-y23_46 <=1 
C772: x23+x48 <=1 
C773: x23+x49-y23_49 <=1 
C774: x23+x53 <=1 
C775: x23+x56-y23_56 <=1 
C776: x23+x57-y23_57 <=1 
C777: x23+x58-y23_58 <=1 
C778: x23+x66 <=1 
C779: x24+x27 <=1 
C780: x24+x29-y24_29 <=1 
C781: x24+x30 <=1 
C782: x24+x31-y24_31 <=1 
C783: x24+x32 <=1 
C784: x24+x42-y24_42 <=1 
C785: x24+x44-y24_44 <=1 
C786: x24+x45-y24_45 <=1 
C787: x24+x46-y24_46 <=1 
C788: x24+x48-y24_48 <=1 
C789: x24+x49-y24_49 <=1 
C790: x24+x53-y24_53 <=1 
C791: x24+x55-y24_55 <=1 
C792: x24+x58 <=1 
C793: x24+x59 <=1 
C794: x24+x60-y24_60 <=1 
C795: x24+x61 <=1 
C796: x24+x63 <=1 
C797: x24+x64-y24_64 <=1 
C798: x24+x65-y24_65 <=1 
C799: x24+x66-y24_66 <=1 
C800: x24+x67 <=1 
C801: x25+x29-y25_29 <=1 
C802: x25+x30 <=1 
C803: x25+x31-y25_31 <=1 
C804: x25+x32 <=1 
C805: x25+x36 <=1 
C806: x25+x37-y25_37 <=1 
C807: x25+x38 <=1 
C808: x25+x44-y25_44 <=1 
C809: x25+x46 <=1 
C810: x25+x47-y25_47 <=1 
C811: x25+x51 <=1 
C812: x25+x52 <=1 
C813: x25+x54-y25_54 <=1 
C814: x25+x55-y25_55 <=1 
C815: x25+x56-y25_56 <=1 
C816: x25+x59-y25_59 <=1 
C817: x25+x61 <=1 
C818: x25+x63 <=1 
C819: x25+x65 <=1 
C820: x25+x68 <=1 
C821: x26+x27 <=1 
C822: x26+x29 <=1 
C823: x26+x30 <=1 
C824: x26+x31 <=1 
C825: x26+x33-y26_33 <=1 
C826: x26+x34 <=1 
C827: x26+x35-y26_35 <=1 
C828: x26+x36 <=1 
C829: x26+x38 <=1 
C830: x26+x39-y26_39 <=1 
C831: x26+x40 <=1 
C832: x26+x41 <=1 
C833: x26+x43 <=1 
C834: x26+x44-y26_44 <=1 
C835: x26+x48-y26_48 <=1 
C836: x26+x50 <=1 
C837: x26+x54 <=1 
C838: x26+x55 <=1 
C839: x26+x59 <=1 
C840: x26+x60 <=1 
C841: x26+x61-y26_61 <=1 
C842: x26+x62-y26_62 <=1 
C843: x26+x63 <=1 
C844: x26+x68 <=1 
C845: x27+x28 <=1 
C846: x27+x29-y27_29 <=1 
C847: x27+x30 <=1 
C848: x27+x31 <=1 
C849: x27+x33 <=1 
C850: x27+x35-y27_35 <=1 
C851: x27+x36 <=1 
C852: x27+x37-y27_37 <=1 
C853: x27+x40-y27_40 <=1 
C854: x27+x42-y27_42 <=1 
C855: x27+x44-y27_44 <=1 
C856: x27+x46 <=1 
C857: x27+x47-y27_47 <=1 
C858: x27+x48 <=1 
C859: x27+x49-y27_49 <=1 
C860: x27+x50 <=1 
C861: x27+x51 <=1 
C862: x27+x54 <=1 
C863: x27+x55 <=1 
C864: x27+x56 <=1 
C865: x27+x57 <=1 
C866: x27+x59-y27_59 <=1 
C867: x27+x60 <=1 
C868: x27+x62-y27_62 <=1 
C869: x27+x65-y27_65 <=1 
C870: x27+x66 <=1 
C871: x27+x67-y27_67 <=1 
C872: x27+x68-y27_68 <=1 
C873: x28+x29 <=1 
C874: x28+x30 <=1 
C875: x28+x31-y28_31 <=1 
C876: x28+x34 <=1 
C877: x28+x36 <=1 
C878: x28+x41 <=1 
C879: x28+x42 <=1 
C880: x28+x43 <=1 
C881: x28+x45 <=1 
C882: x28+x46-y28_46 <=1 
C883: x28+x47-y28_47 <=1 
C884: x28+x48-y28_48 <=1 
C885: x28+x49 <=1 
C886: x28+x50-y28_50 <=1 
C887: x28+x52 <=1 
C888: x28+x54 <=1 
C889: x28+x59-y28_59 <=1 
C890: x28+x66-y28_66 <=1 
C891: x28+x68-y28_68 <=1 
C892: x29+x33 <=1 
C893: x29+x34-y29_34 <=1 
C894: x29+x36-y29_36 <=1 
C895: x29+x38-y29_38 <=1 
C896: x29+x39-y29_39 <=1 
C897: x29+x40 <=1 
C898: x29+x42-y29_42 <=1 
C899: x29+x43-y29_43 <=1 
C900: x29+x44-y29_44 <=1 
C901: x29+x46-y29_46 <=1 
C902: x29+x47-y29_47 <=1 
C903: x29+x49-y29_49 <=1 
C904: x29+x51 <=1 
C905: x29+x52-y29_52 <=1 
C906: x29+x56 <=1 
C907: x29+x57-y29_57 <=1 
C908: x29+x58-y29_58 <=1 
C909: x29+x60 <=1 
C910: x29+x61-y29_61 <=1 
C911: x29+x63 <=1 
C912: x29+x64-y29_64 <=1 
C913: x29+x65 <=1 
C914: x29+x66-y29_66 <=1 
C915: x29+x67 <=1 
C916: x30+x31-y30_31 <=1 
C917: x30+x35-y30_35 <=1 
C918: x30+x37-y30_37 <=1 
C919: x30+x38 <=1 
C920: x30+x39-y30_39 <=1 
C921: x30+x40 <=1 
C922: x30+x41 <=1 
C923: x30+x42-y30_42 <=1 
C924: x30+x46-y30_46 <=1 
C925: x30+x47 <=1 
C926: x30+x48-y30_48 <=1 
C927: x30+x49 <=1 
C928: x30+x50 <=1 
C929: x30+x51 <=1 
C930: x30+x52-y30_52 <=1 
C931: x30+x54-y30_54 <=1 
C932: x30+x55-y30_55 <=1 
C933: x30+x57 <=1 
C934: x30+x58-y30_58 <=1 
C935: x30+x59 <=1 
C936: x30+x60-y30_60 <=1 
C937: x30+x61-y30_61 <=1 
C938: x30+x62-y30_62 <=1 
C939: x30+x63 <=1 
C940: x30+x64 <=1 
C941: x30+x65 <=1 
C942: x30+x67 <=1 
C943: x30+x68-y30_68 <=1 
C944: x31+x33 <=1 
C945: x31+x34 <=1 
C946: x31+x35 <=1 
C947: x31+x36 <=1 
C948: x31+x37 <=1 
C949: x31+x42-y31_42 <=1 
C950: x31+x43 <=1 
C951: x31+x44 <=1 
C952: x31+x45-y31_45 <=1 
C953: x31+x46 <=1 
C954: x31+x47-y31_47 <=1 
C955: x31+x48-y31_48 <=1 
C956: x31+x49 <=1 
C957: x31+x50-y31_50 <=1 
C958: x31+x54-y31_54 <=1 
C959: x31+x56-y31_56 <=1 
C960: x31+x57-y31_57 <=1 
C961: x31+x59 <=1 
C962: x31+x60 <=1 
C963: x31+x64-y31_64 <=1 
C964: x31+x66 <=1 
C965: x31+x68 <=1 
C966: x32+x33-y32_33 <=1 
C967: x32+x37 <=1 
C968: x32+x38 <=1 
C969: x32+x39-y32_39 <=1 
C970: x32+x40 <=1 
C971: x32+x42-y32_42 <=1 
C972: x32+x43 <=1 
C973: x32+x45-y32_45 <=1 
C974: x32+x46 <=1 
C975: x32+x47 <=1 
C976: x32+x51 <=1 
C977: x32+x52-y32_52 <=1 
C978: x32+x53 <=1 
C979: x32+x54 <=1 
C980: x32+x55 <=1 
C981: x32+x59 <=1 
C982: x32+x62-y32_62 <=1 
C983: x32+x63 <=1 
C984: x32+x64 <=1 
C985: x32+x66-y32_66 <=1 
C986: x33+x34 <=1 
C987: x33+x37 <=1 
C988: x33+x38 <=1 
C989: x33+x43 <=1 
C990: x33+x44-y33_44 <=1 
C991: x33+x45 <=1 
C992: x33+x46-y33_46 <=1 
C993: x33+x47 <=1 
C994: x33+x49-y33_49 <=1 
C995: x33+x50-y33_50 <=1 
C996: x33+x53 <=1 
C997: x33+x54 <=1 
C998: x33+x57-y33_57 <=1 
C999: x33+x58 <=1 
C1000: x33+x63-y33_63 <=1 
C1001: x33+x64 <=1 
C1002: x33+x65 <=1 
C1003: x33+x67 <=1 
C1004: x34+x35 <=1 
C1005: x34+x38 <=1 
C1006: x34+x40 <=1 
C1007: x34+x41-y34_41 <=1 
C1008: x34+x42 <=1 
C1009: x34+x45 <=1 
C1010: x34+x46-y34_46 <=1 
C1011: x34+x49 <=1 
C1012: x34+x50 <=1 
C1013: x34+x51-y34_51 <=1 
C1014: x34+x52-y34_52 <=1 
C1015: x34+x53 <=1 
C1016: x34+x54-y34_54 <=1 
C1017: x34+x55 <=1 
C1018: x34+x59 <=1 
C1019: x34+x60-y34_60 <=1 
C1020: x34+x62 <=1 
C1021: x34+x65 <=1 
C1022: x34+x66 <=1 
C1023: x34+x68 <=1 
C1024: x35+x36 <=1 
C1025: x35+x37-y35_37 <=1 
C1026: x35+x38 <=1 
C1027: x35+x39 <=1 
C1028: x35+x40 <=1 
C1029: x35+x41 <=1 
C1030: x35+x42 <=1 
C1031: x35+x44-y35_44 <=1 
C1032: x35+x46 <=1 
C1033: x35+x47 <=1 
C1034: x35+x48-y35_48 <=1 
C1035: x35+x49-y35_49 <=1 
C1036: x35+x51-y35_51 <=1 
C1037: x35+x53-y35_53 <=1 
C1038: x35+x55-y35_55 <=1 
C1039: x35+x57-y35_57 <=1 
C1040: x35+x59-y35_59 <=1 
C1041: x35+x64 <=1 
C1042: x35+x65 <=1 
C1043: x35+x66 <=1 
C1044: x35+x67-y35_67 <=1 
C1045: x35+x68 <=1 
C1046: x36+x37-y36_37 <=1 
C1047: x36+x38 <=1 
C1048: x36+x39-y36_39 <=1 
C1049: x36+x40 <=1 
C1050: x36+x42 <=1 
C1051: x36+x43-y36_43 <=1 
C1052: x36+x44 <=1 
C1053: x36+x45-y36_45 <=1 
C1054: x36+x47 <=1 
C1055: x36+x48-y36_48 <=1 
C1056: x36+x49-y36_49 <=1 
C1057: x36+x52 <=1 
C1058: x36+x53 <=1 
C1059: x36+x55-y36_55 <=1 
C1060: x36+x58-y36_58 <=1 
C1061: x36+x60 <=1 
C1062: x36+x61 <=1 
C1063: x36+x65 <=1 
C1064: x36+x66 <=1 
C1065: x36+x67-y36_67 <=1 
C1066: x37+x38-y37_38 <=1 
C1067: x37+x39 <=1 
C1068: x37+x41-y37_41 <=1 
C1069: x37+x43 <=1 
C1070: x37+x44-y37_44 <=1 
C1071: x37+x45-y37_45 <=1 
C1072: x37+x46-y37_46 <=1 
C1073: x37+x47 <=1 
C1074: x37+x48-y37_48 <=1 
C1075: x37+x49-y37_49 <=1 
C1076: x37+x50-y37_50 <=1 
C1077: x37+x53 <=1 
C1078: x37+x54-y37_54 <=1 
C1079: x37+x55-y37_55 <=1 
C1080: x37+x57 <=1 
C1081: x37+x61 <=1 
C1082: x37+x63-y37_63 <=1 
C1083: x37+x64-y37_64 <=1 
C1084: x37+x65-y37_65 <=1 
C1085: x37+x66 <=1 
C1086: x37+x67 <=1 
C1087: x38+x42 <=1 
C1088: x38+x44 <=1 
C1089: x38+x45 <=1 
C1090: x38+x46-y38_46 <=1 
C1091: x38+x49-y38_49 <=1 
C1092: x38+x50-y38_50 <=1 
C1093: x38+x51 <=1 
C1094: x38+x54-y38_54 <=1 
C1095: x38+x56 <=1 
C1096: x38+x57 <=1 
C1097: x38+x58 <=1 
C1098: x38+x61 <=1 
C1099: x38+x63-y38_63 <=1 
C1100: x38+x65-y38_65 <=1 
C1101: x38+x67 <=1 
C1102: x38+x68 <=1 
C1103: x39+x40 <=1 
C1104: x39+x44-y39_44 <=1 
C1105: x39+x45 <=1 
C1106: x39+x47 <=1 
C1107: x39+x48 <=1 
C1108: x39+x49 <=1 
C1109: x39+x52-y39_52 <=1 
C1110: x39+x54 <=1 
C1111: x39+x55 <=1 
C1112: x39+x56-y39_56 <=1 
C1113: x39+x57-y39_57 <=1 
C1114: x39+x58-y39_58 <=1 
C1115: x39+x59-y39_59 <=1 
C1116: x39+x60-y39_60 <=1 
C1117: x39+x61-y39_61 <=1 
C1118: x39+x64 <=1 
C1119: x39+x67 <=1 
C1120: x39+x68-y39_68 <=1 
C1121: x40+x41 <=1 
C1122: x40+x42 <=1 
C1123: x40+x43 <=1 
C1124: x40+x44 <=1 
C1125: x40+x45-y40_45 <=1 
C1126: x40+x46 <=1 
C1127: x40+x48 <=1 
C1128: x40+x49 <=1 
C1129: x40+x50-y40_50 <=1 
C1130: x40+x52-y40_52 <=1 
C1131: x40+x55 <=1 
C1132: x40+x56 <=1 
C1133: x40+x57-y40_57 <=1 
C1134: x40+x60 <=1 
C1135: x40+x62 <=1 
C1136: x40+x65-y40_65 <=1 
C1137: x40+x66 <=1 
C1138: x40+x67-y40_67 <=1 
C1139: x41+x42 <=1 
C1140: x41+x43-y41_43 <=1 
C1141: x41+x47 <=1 
C1142: x41+x51-y41_51 <=1 
C1143: x41+x54 <=1 
C1144: x41+x56 <=1 
C1145: x41+x57-y41_57 <=1 
C1146: x41+x59-y41_59 <=1 
C1147: x41+x60 <=1 
C1148: x41+x61-y41_61 <=1 
C1149: x41+x63 <=1 
C1150: x41+x64-y41_64 <=1 
C1151: x41+x66 <=1 
C1152: x41+x67 <=1 
C1153: x41+x68-y41_68 <=1 
C1154: x42+x44 <=1 
C1155: x42+x46-y42_46 <=1 
C1156: x42+x47-y42_47 <=1 
C1157: x42+x48-y42_48 <=1 
C1158: x42+x49-y42_49 <=1 
C1159: x42+x50-y42_50 <=1 
C1160: x42+x51-y42_51 <=1 
C1161: x42+x52-y42_52 <=1 
C1162: x42+x53 <=1 
C1163: x42+x56 <=1 
C1164: x42+x57-y42_57 <=1 
C1165: x42+x60-y42_60 <=1 
C1166: x42+x61-y42_61 <=1 
C1167: x42+x63-y42_63 <=1 
C1168: x42+x64 <=1 
C1169: x43+x44-y43_44 <=1 
C1170: x43+x45-y43_45 <=1 
C1171: x43+x46 <=1 
C1172: x43+x47-y43_47 <=1 
C1173: x43+x50-y43_50 <=1 
C1174: x43+x52 <=1 
C1175: x43+x55 <=1 
C1176: x43+x58-y43_58 <=1 
C1177: x43+x59-y43_59 <=1 
C1178: x43+x61 <=1 
C1179: x43+x62 <=1 
C1180: x43+x63 <=1 
C1181: x43+x65 <=1 
C1182: x43+x66-y43_66 <=1 
C1183: x43+x67-y43_67 <=1 
C1184: x43+x68-y43_68 <=1 
C1185: x44+x45 <=1 
C1186: x44+x46 <=1 
C1187: x44+x47-y44_47 <=1 
C1188: x44+x48 <=1 
C1189: x44+x51-y44_51 <=1 
C1190: x44+x52 <=1 
C1191: x44+x55 <=1 
C1192: x44+x58 <=1 
C1193: x44+x59 <=1 
C1194: x44+x60 <=1 
C1195: x44+x61 <=1 
C1196: x44+x64 <=1 
C1197: x44+x66 <=1 
C1198: x44+x68 <=1 
C1199: x45+x46-y45_46 <=1 
C1200: x45+x47 <=1 
C1201: x45+x50-y45_50 <=1 
C1202: x45+x52 <=1 
C1203: x45+x53 <=1 
C1204: x45+x54-y45_54 <=1 
C1205: x45+x55-y45_55 <=1 
C1206: x45+x56-y45_56 <=1 
C1207: x45+x58 <=1 
C1208: x45+x59-y45_59 <=1 
C1209: x45+x60-y45_60 <=1 
C1210: x45+x64 <=1 
C1211: x45+x65 <=1 
C1212: x45+x66-y45_66 <=1 
C1213: x46+x49-y46_49 <=1 
C1214: x46+x50 <=1 
C1215: x46+x56 <=1 
C1216: x46+x60 <=1 
C1217: x46+x63-y46_63 <=1 
C1218: x46+x64 <=1 
C1219: x46+x66 <=1 
C1220: x47+x48 <=1 
C1221: x47+x49 <=1 
C1222: x47+x50-y47_50 <=1 
C1223: x47+x52-y47_52 <=1 
C1224: x47+x56-y47_56 <=1 
C1225: x47+x60-y47_60 <=1 
C1226: x47+x63 <=1 
C1227: x47+x65-y47_65 <=1 
C1228: x47+x66-y47_66 <=1 
C1229: x48+x49-y48_49 <=1 
C1230: x48+x52-y48_52 <=1 
C1231: x48+x61 <=1 
C1232: x48+x63 <=1 
C1233: x48+x65-y48_65 <=1 
C1234: x48+x67 <=1 
C1235: x49+x50-y49_50 <=1 
C1236: x49+x52 <=1 
C1237: x49+x54-y49_54 <=1 
C1238: x49+x55 <=1 
C1239: x49+x58 <=1 
C1240: x49+x61-y49_61 <=1 
C1241: x49+x64-y49_64 <=1 
C1242: x49+x65-y49_65 <=1 
C1243: x49+x66 <=1 
C1244: x49+x67 <=1 
C1245: x49+x68-y49_68 <=1 
C1246: x50+x52 <=1 
C1247: x50+x55-y50_55 <=1 
C1248: x50+x57 <=1 
C1249: x50+x58 <=1 
C1250: x50+x59-y50_59 <=1 
C1251: x50+x60 <=1 
C1252: x50+x62 <=1 
C1253: x50+x63-y50_63 <=1 
C1254: x50+x65 <=1 
C1255: x50+x67-y50_67 <=1 
C1256: x51+x53-y51_53 <=1 
C1257: x51+x54 <=1 
C1258: x51+x56-y51_56 <=1 
C1259: x51+x57 <=1 
C1260: x51+x60 <=1 
C1261: x51+x61 <=1 
C1262: x51+x64 <=1 
C1263: x51+x67 <=1 
C1264: x51+x68 <=1 
C1265: x52+x55 <=1 
C1266: x52+x56-y52_56 <=1 
C1267: x52+x57 <=1 
C1268: x52+x60-y52_60 <=1 
C1269: x52+x61 <=1 
C1270: x52+x62 <=1 
C1271: x52+x64 <=1 
C1272: x52+x65 <=1 
C1273: x52+x67-y52_67 <=1 
C1274: x53+x54 <=1 
C1275: x53+x56-y53_56 <=1 
C1276: x53+x57 <=1 
C1277: x53+x58 <=1 
C1278: x53+x59-y53_59 <=1 
C1279: x53+x61 <=1 
C1280: x53+x62 <=1 
C1281: x53+x65-y53_65 <=1 
C1282: x53+x67 <=1 
C1283: x53+x68 <=1 
C1284: x54+x55 <=1 
C1285: x54+x57 <=1 
C1286: x54+x58 <=1 
C1287: x54+x63-y54_63 <=1 
C1288: x54+x64 <=1 
C1289: x54+x65-y54_65 <=1 
C1290: x54+x66 <=1 
C1291: x54+x67-y54_67 <=1 
C1292: x54+x68-y54_68 <=1 
C1293: x55+x57 <=1 
C1294: x55+x58 <=1 
C1295: x55+x63-y55_63 <=1 
C1296: x55+x65 <=1 
C1297: x55+x66 <=1 
C1298: x55+x67-y55_67 <=1 
C1299: x55+x68-y55_68 <=1 
C1300: x56+x57 <=1 
C1301: x56+x59 <=1 
C1302: x56+x60 <=1 
C1303: x56+x62-y56_62 <=1 
C1304: x56+x63-y56_63 <=1 
C1305: x56+x65 <=1 
C1306: x56+x66 <=1 
C1307: x56+x67 <=1 
C1308: x56+x68-y56_68 <=1 
C1309: x57+x58 <=1 
C1310: x57+x60 <=1 
C1311: x57+x61-y57_61 <=1 
C1312: x57+x63-y57_63 <=1 
C1313: x57+x64 <=1 
C1314: x57+x66-y57_66 <=1 
C1315: x57+x67-y57_67 <=1 
C1316: x58+x59-y58_59 <=1 
C1317: x58+x60 <=1 
C1318: x58+x62 <=1 
C1319: x58+x63 <=1 
C1320: x58+x64-y58_64 <=1 
C1321: x58+x65-y58_65 <=1 
C1322: x58+x66 <=1 
C1323: x58+x67 <=1 
C1324: x58+x68 <=1 
C1325: x59+x60 <=1 
C1326: x59+x61-y59_61 <=1 
C1327: x59+x62 <=1 
C1328: x59+x63-y59_63 <=1 
C1329: x59+x64-y59_64 <=1 
C1330: x59+x65-y59_65 <=1 
C1331: x59+x66-y59_66 <=1 
C1332: x59+x67-y59_67 <=1 
C1333: x60+x62-y60_62 <=1 
C1334: x60+x66 <=1 
C1335: x60+x67 <=1 
C1336: x60+x68-y60_68 <=1 
C1337: x61+x62 <=1 
C1338: x61+x64 <=1 
C1339: x61+x65 <=1 
C1340: x61+x66-y61_66 <=1 
C1341: x61+x68 <=1 
C1342: x62+x63 <=1 
C1343: x62+x64-y62_64 <=1 
C1344: x62+x65-y62_65 <=1 
C1345: x62+x67 <=1 
C1346: x62+x68 <=1 
C1347: x63+x64 <=1 
C1348: x63+x65 <=1 
C1349: x63+x66 <=1 
C1350: x63+x67 <=1 
C1351: x64+x65 <=1 
C1352: x64+x67 <=1 
C1353: x65+x67-y65_67 <=1 
C1354: x66+x68 <=1 
C1355: x67+x68 <=1 

binary
x0
x1
x2
x3
x4
x5
x6
x7
x8
x9
x10
x11
x12
x13
x14
x15
x16
x17
x18
x19
x20
x21
x22
x23
x24
x25
x26
x27
x28
x29
x30
x31
x32
x33
x34
x35
x36
x37
x38
x39
x40
x41
x42
x43
x44
x45
x46
x47
x48
x49
x50
x51
x52
x53
x54
x55
x56
x57
x58
x59
x60
x61
x62
x63
x64
x65
x66
x67
x68
