problem_generation/data/GISP/train/er_n=69_m=1355_p=0.60_SET2_setparam=100.00_alpha=0.50_978.sol
objective value:                                 1364
x0                                                  1 	(obj:100)
x1                                                  1 	(obj:100)
x16                                                 1 	(obj:100)
x17                                                 1 	(obj:100)
x19                                                 1 	(obj:100)
x22                                                 1 	(obj:100)
x23                                                 1 	(obj:100)
x42                                                 1 	(obj:100)
x45                                                 1 	(obj:100)
x50                                                 1 	(obj:100)
x55                                                 1 	(obj:100)
x59                                                 1 	(obj:100)
x61                                                 1 	(obj:100)
x67                                                 1 	(obj:100)
y17_67                                              1 	(obj:-1)
y0_23                                               1 	(obj:-1)
y50_67                                              1 	(obj:-1)
y16_59                                              1 	(obj:-1)
y17_42                                              1 	(obj:-1)
y19_55                                              1 	(obj:-1)
y16_22                                              1 	(obj:-1)
y17_23                                              1 	(obj:-1)
y19_59                                              1 	(obj:-1)
y42_61                                              1 	(obj:-1)
y0_55                                               1 	(obj:-1)
y19_45                                              1 	(obj:-1)
y0_59                                               1 	(obj:-1)
y23_42                                              1 	(obj:-1)
y1_23                                               1 	(obj:-1)
y0_45                                               1 	(obj:-1)
y22_50                                              1 	(obj:-1)
y22_45                                              1 	(obj:-1)
y59_67                                              1 	(obj:-1)
y0_16                                               1 	(obj:-1)
y59_61                                              1 	(obj:-1)
y55_67                                              1 	(obj:-1)
y1_59                                               1 	(obj:-1)
y17_22                                              1 	(obj:-1)
y50_55                                              1 	(obj:-1)
y50_59                                              1 	(obj:-1)
y42_50                                              1 	(obj:-1)
y23_45                                              1 	(obj:-1)
y1_17                                               1 	(obj:-1)
y45_55                                              1 	(obj:-1)
y0_61                                               1 	(obj:-1)
y45_50                                              1 	(obj:-1)
y16_23                                              1 	(obj:-1)
y45_59                                              1 	(obj:-1)
y22_61                                              1 	(obj:-1)
y0_42                                               1 	(obj:-1)
